(set-logic HORN)

(declare-fun inv-f (Int Int Int Int) Bool)
(assert (forall ((A Int) (B Int) (C Int) (D Int))
  (=> (and (inv-f D C B A) (>= (+ (- 4) C) 0) (>= (- 2 B) 0)) false)
    ))
(assert (forall ((A Int) (B Int) (C Int) (D Int))
  (=> (and (= D 0) (= C 0) (= B 0) (= A 0)) (inv-f D C B A))))
(assert (forall ((A Int) (B Int) (C Int) (D Int) (E Int) (F Int) (G Int) (H Int))
  (let ((a!1 (and (= (- (+ (- 1) G) C) 0) (= (- (+ (- 100) F) B) 0)))
           (a!2 (and (>= (+ (- 4) C) 0)
                     (= (- (+ (- 1) G) C) 0)
                     (= (- (+ (- 1) F) B) 0)))
           (a!3 (and (>= (+ (- 1) (* (- 10) D) B) 0)
                     (>= (+ (* (- 100) C) A) 0)
                     (= (+ F B) 0)
                     (= (- G C) 0))))
     (let ((a!4 (and (inv-f D C B A)
                     (or a!1 a!2 a!3)
                     (= (- (+ (- 1) H) D) 0)
                     (= (- (+ (- 10) E) A) 0))))
       (=> a!4 (inv-f H G F E))))
    ))


(check-sat)
(exit)
